(set-logic HORN)
(declare-datatypes ((Nat_1 0)) (((Z_1 ) (S_1 (unS_0 Nat_1)))))
(declare-fun diseqNat_0 (Nat_1 Nat_1) Bool)
(declare-fun unS_1 (Nat_1 Nat_1) Bool)
(declare-fun isZ_0 (Nat_1) Bool)
(declare-fun isS_0 (Nat_1) Bool)
(assert (forall ((x_33 Nat_1) (x_32 Nat_1))
	(=> (= x_33 (S_1 x_32))
	    (unS_1 x_32 x_33))))
(assert (isZ_0 Z_1))
(assert (forall ((x_34 Nat_1))
	(isS_0 (S_1 x_34))))
(assert (forall ((x_35 Nat_1))
	(diseqNat_0 Z_1 (S_1 x_35))))
(assert (forall ((x_36 Nat_1))
	(diseqNat_0 (S_1 x_36) Z_1)))
(assert (forall ((x_37 Nat_1) (x_38 Nat_1))
	(=> (diseqNat_0 x_37 x_38)
	    (diseqNat_0 (S_1 x_37) (S_1 x_38)))))
(declare-fun add_0 (Nat_1 Nat_1 Nat_1) Bool)
(declare-fun minus_0 (Nat_1 Nat_1 Nat_1) Bool)
(declare-fun le_0 (Nat_1 Nat_1) Bool)
(declare-fun ge_0 (Nat_1 Nat_1) Bool)
(declare-fun lt_0 (Nat_1 Nat_1) Bool)
(declare-fun gt_0 (Nat_1 Nat_1) Bool)
(declare-fun mult_0 (Nat_1 Nat_1 Nat_1) Bool)
(declare-fun div_0 (Nat_1 Nat_1 Nat_1) Bool)
(declare-fun mod_0 (Nat_1 Nat_1 Nat_1) Bool)
(assert (forall ((y_4 Nat_1))
	(add_0 y_4 Z_1 y_4)))
(assert (forall ((x_30 Nat_1) (y_4 Nat_1) (r_0 Nat_1))
	(=> (add_0 r_0 x_30 y_4)
	    (add_0 (S_1 r_0) (S_1 x_30) y_4))))
(assert (forall ((y_4 Nat_1))
	(minus_0 Z_1 Z_1 y_4)))
(assert (forall ((x_30 Nat_1) (y_4 Nat_1) (r_0 Nat_1))
	(=> (minus_0 r_0 x_30 y_4)
	    (minus_0 (S_1 r_0) (S_1 x_30) y_4))))
(assert (forall ((y_4 Nat_1))
	(le_0 Z_1 y_4)))
(assert (forall ((x_30 Nat_1) (y_4 Nat_1))
	(=> (le_0 x_30 y_4)
	    (le_0 (S_1 x_30) (S_1 y_4)))))
(assert (forall ((y_4 Nat_1))
	(ge_0 y_4 Z_1)))
(assert (forall ((x_30 Nat_1) (y_4 Nat_1))
	(=> (ge_0 x_30 y_4)
	    (ge_0 (S_1 x_30) (S_1 y_4)))))
(assert (forall ((y_4 Nat_1))
	(lt_0 Z_1 (S_1 y_4))))
(assert (forall ((x_30 Nat_1) (y_4 Nat_1))
	(=> (lt_0 x_30 y_4)
	    (lt_0 (S_1 x_30) (S_1 y_4)))))
(assert (forall ((y_4 Nat_1))
	(gt_0 (S_1 y_4) Z_1)))
(assert (forall ((x_30 Nat_1) (y_4 Nat_1))
	(=> (gt_0 x_30 y_4)
	    (gt_0 (S_1 x_30) (S_1 y_4)))))
(assert (forall ((y_4 Nat_1))
	(mult_0 Z_1 Z_1 y_4)))
(assert (forall ((x_30 Nat_1) (y_4 Nat_1) (r_0 Nat_1) (z_3 Nat_1))
	(=>	(and (mult_0 r_0 x_30 y_4)
			(add_0 z_3 r_0 y_4))
		(mult_0 z_3 (S_1 x_30) y_4))))
(assert (forall ((x_30 Nat_1) (y_4 Nat_1))
	(=> (lt_0 x_30 y_4)
	    (div_0 Z_1 x_30 y_4))))
(assert (forall ((x_30 Nat_1) (y_4 Nat_1) (r_0 Nat_1) (z_3 Nat_1))
	(=>	(and (ge_0 x_30 y_4)
			(minus_0 z_3 x_30 y_4)
			(div_0 r_0 z_3 y_4))
		(div_0 (S_1 r_0) x_30 y_4))))
(assert (forall ((x_30 Nat_1) (y_4 Nat_1))
	(=> (lt_0 x_30 y_4)
	    (mod_0 x_30 x_30 y_4))))
(assert (forall ((x_30 Nat_1) (y_4 Nat_1) (r_0 Nat_1) (z_3 Nat_1))
	(=>	(and (ge_0 x_30 y_4)
			(minus_0 z_3 x_30 y_4)
			(mod_0 r_0 z_3 y_4))
		(mod_0 r_0 x_30 y_4))))
(declare-datatypes ((Nat_0 0)) (((Z_0 ) (S_0 (projS_0 Nat_0)))))
(declare-fun diseqNat_1 (Nat_0 Nat_0) Bool)
(declare-fun projS_1 (Nat_0 Nat_0) Bool)
(declare-fun isZ_1 (Nat_0) Bool)
(declare-fun isS_1 (Nat_0) Bool)
(assert (forall ((x_41 Nat_0) (x_40 Nat_0))
	(=> (= x_41 (S_0 x_40))
	    (projS_1 x_40 x_41))))
(assert (isZ_1 Z_0))
(assert (forall ((x_42 Nat_0))
	(isS_1 (S_0 x_42))))
(assert (forall ((x_43 Nat_0))
	(diseqNat_1 Z_0 (S_0 x_43))))
(assert (forall ((x_44 Nat_0))
	(diseqNat_1 (S_0 x_44) Z_0)))
(assert (forall ((x_45 Nat_0) (x_46 Nat_0))
	(=> (diseqNat_1 x_45 x_46)
	    (diseqNat_1 (S_0 x_45) (S_0 x_46)))))
(declare-datatypes ((list_0 0)) (((nil_0 ) (cons_0 (head_0 Nat_0) (tail_0 list_0)))))
(declare-fun diseqlist_0 (list_0 list_0) Bool)
(declare-fun head_1 (Nat_0 list_0) Bool)
(declare-fun tail_1 (list_0 list_0) Bool)
(declare-fun isnil_0 (list_0) Bool)
(declare-fun iscons_0 (list_0) Bool)
(assert (forall ((x_50 list_0) (x_48 Nat_0) (x_49 list_0))
	(=> (= x_50 (cons_0 x_48 x_49))
	    (head_1 x_48 x_50))))
(assert (forall ((x_50 list_0) (x_48 Nat_0) (x_49 list_0))
	(=> (= x_50 (cons_0 x_48 x_49))
	    (tail_1 x_49 x_50))))
(assert (isnil_0 nil_0))
(assert (forall ((x_51 Nat_0) (x_52 list_0))
	(iscons_0 (cons_0 x_51 x_52))))
(assert (forall ((x_53 Nat_0) (x_54 list_0))
	(diseqlist_0 nil_0 (cons_0 x_53 x_54))))
(assert (forall ((x_55 Nat_0) (x_56 list_0))
	(diseqlist_0 (cons_0 x_55 x_56) nil_0)))
(assert (forall ((x_57 Nat_0) (x_58 list_0) (x_59 Nat_0) (x_60 list_0))
	(=> (diseqNat_1 x_57 x_59)
	    (diseqlist_0 (cons_0 x_57 x_58) (cons_0 x_59 x_60)))))
(assert (forall ((x_57 Nat_0) (x_58 list_0) (x_59 Nat_0) (x_60 list_0))
	(=> (diseqlist_0 x_58 x_60)
	    (diseqlist_0 (cons_0 x_57 x_58) (cons_0 x_59 x_60)))))
(declare-fun len_0 (Nat_0 list_0) Bool)
(assert (forall ((x_0 list_0) (y_0 Nat_0) (xs_0 list_0) (x_10 Nat_0) (x_11 Nat_0))
	(=>	(and (= x_10 (S_0 x_11))
			(len_0 x_11 xs_0)
			(= x_0 (cons_0 y_0 xs_0)))
		(len_0 x_10 x_0))))
(assert (forall ((x_0 list_0) (x_12 Nat_0))
	(=>	(and (= x_12 Z_0)
			(= x_0 nil_0))
		(len_0 x_12 x_0))))
(declare-fun last_0 (Nat_0 list_0) Bool)
(assert (forall ((x_1 list_0) (y_1 Nat_0) (z_0 list_0) (x_2 Nat_0) (x_3 list_0) (x_13 Nat_0) (x_14 Nat_0))
	(=>	(and (= x_13 x_14)
			(last_0 x_14 (cons_0 x_2 x_3))
			(= x_1 (cons_0 y_1 z_0))
			(= z_0 (cons_0 x_2 x_3)))
		(last_0 x_13 x_1))))
(assert (forall ((x_1 list_0) (y_1 Nat_0) (z_0 list_0) (x_15 Nat_0))
	(=>	(and (= x_15 y_1)
			(= x_1 (cons_0 y_1 z_0))
			(= z_0 nil_0))
		(last_0 x_15 x_1))))
(assert (forall ((x_1 list_0) (x_16 Nat_0))
	(=>	(and (= x_16 Z_0)
			(= x_1 nil_0))
		(last_0 x_16 x_1))))
(declare-fun drop_0 (list_0 Nat_0 list_0) Bool)
(assert (forall ((x_4 Nat_0) (y_2 list_0) (z_1 Nat_0) (x_5 Nat_0) (x_6 list_0) (x_17 list_0) (x_18 list_0))
	(=>	(and (= x_17 x_18)
			(drop_0 x_18 z_1 x_6)
			(= x_4 (S_0 z_1))
			(= y_2 (cons_0 x_5 x_6)))
		(drop_0 x_17 x_4 y_2))))
(assert (forall ((x_4 Nat_0) (y_2 list_0) (z_1 Nat_0) (x_19 list_0))
	(=>	(and (= x_19 nil_0)
			(= x_4 (S_0 z_1))
			(= y_2 nil_0))
		(drop_0 x_19 x_4 y_2))))
(assert (forall ((x_4 Nat_0) (y_2 list_0) (x_20 list_0))
	(=>	(and (= x_20 y_2)
			(= x_4 Z_0))
		(drop_0 x_20 x_4 y_2))))
(declare-fun x_7 (Bool Nat_0 Nat_0) Bool)
(assert (forall ((x_8 Nat_0) (y_3 Nat_0) (z_2 Nat_0) (x_9 Nat_0) (x_21 Bool) (x_22 Bool))
	(=>	(and (= x_21 x_22)
			(x_7 x_22 x_9 z_2)
			(= y_3 (S_0 z_2))
			(= x_8 (S_0 x_9)))
		(x_7 x_21 x_8 y_3))))
(assert (forall ((x_8 Nat_0) (y_3 Nat_0) (z_2 Nat_0) (x_23 Bool))
	(=>	(and (= x_23 true)
			(= y_3 (S_0 z_2))
			(= x_8 Z_0))
		(x_7 x_23 x_8 y_3))))
(assert (forall ((x_8 Nat_0) (y_3 Nat_0) (x_24 Bool))
	(=>	(and (= x_24 false)
			(= y_3 Z_0))
		(x_7 x_24 x_8 y_3))))
(assert (forall ((n_0 Nat_0) (xs_1 list_0) (x_25 list_0) (x_26 Nat_0) (x_27 Nat_0) (x_28 Nat_0) (x_29 Bool))
	(=>	(and (diseqNat_1 x_26 x_27)
			(= x_29 true)
			(drop_0 x_25 n_0 xs_1)
			(last_0 x_26 x_25)
			(last_0 x_27 xs_1)
			(len_0 x_28 xs_1)
			(x_7 x_29 n_0 x_28))
		false)))
(check-sat)
